42 45 54 48 51 56 51 55 58 44 48 55 49 44 49 44 54 51 53 47 45 54 48 54 41 49 41 53 48 59 47 54 53 56 39 54 39 48 50 52 57 44 41 39 52 45 47 49 41 56 53 50 56 48 51 47 48 46 52 51 48 44 56 51 48 49 54 49 48 53 43 51 48 55 44 50 45 54 44 59 62 48 51 54 55 47 47 50 51 48 52 39 46 42 48 48 56 57 41 49 